1 2
2 1
3 2
4 2
5 1
6 2
7 1
8 1
9 2
10 1
11 2
12 2
13 2
14 1
15 1
16 1
17 1
18 2
19 1
20 2
21 1
22 2
23 1
24 2
25 1
26 2
27 1
28 1
29 2
30 1
31 2
32 1
33 1
34 2
35 2
36 1
37 2
38 1
39 1
40 2
41 1
42 2
43 2
44 2
45 1
46 1
47 1
48 2
49 2
50 2
51 1
52 2
53 2
54 2
55 1
56 1
57 2
58 2
59 1
60 1
61 1
62 2
63 2
64 2
65 1
66 1
67 2
68 2
69 2
70 1
71 1
72 1
73 1
74 1
75 2
76 1
77 2
78 2
79 1
80 1
81 2
82 1
83 1
84 1
85 1
86 2
87 1
88 1
89 2
90 1
91 1
92 1
93 2
94 1
95 1
96 2
97 2
98 1
99 2
100 2
101 1
102 2
103 2
104 2
105 2
106 2
107 2
108 2
109 2
110 2
111 2
112 1
113 2
114 2
115 2
116 2
117 2
118 1
119 1
120 1
121 2
122 2
123 2
124 1
125 2
126 2
127 1
128 2
129 2
130 2
131 1
132 1
133 2
134 1
135 2
136 1
137 2
138 2
139 2
140 1
141 1
142 2
143 2
144 2
145 2
146 2
147 1
148 1
149 2
150 1
151 2
152 1
153 2
154 1
155 2
156 1
157 1
158 2
159 1
160 1
161 1
162 2
163 2
164 2
165 1
166 1
167 2
168 1
169 2
170 2
171 1
172 1
173 2
174 1
175 2
176 1
177 2
178 1
179 2
180 1
181 2
182 1
183 2
184 2
185 1
186 2
187 2
188 2
189 2
190 2
191 2
192 1
193 2
194 1
195 2
196 1
197 2
198 1
199 2
200 1
201 2
202 1
203 2
204 2
205 1
206 1
207 1
208 2
209 1
210 1
211 2
212 2
213 1
214 2
215 2
216 2
217 1
218 1
219 1
220 1
221 2
222 1
223 1
224 2
225 2
226 2
227 1
228 2
229 1
230 2
231 1
232 1
233 2
234 1
235 1
236 1
237 2
238 2
239 2
240 1
241 1
242 2
243 1
244 1
245 2
246 2
247 2
248 1
249 2
250 2
251 1
252 2
253 1
254 1
255 2
256 2
257 2
258 2
259 2
260 2
261 2
262 1
263 1
264 2
265 2
266 1
267 2
268 2
269 1
270 2
271 1
272 1
273 2
274 1
275 2
276 2
277 2
278 1
279 1
280 2
281 1
282 2
283 1
284 2
285 1
286 2
287 1
288 2
289 2
290 2
291 1
292 2
293 1
294 2
295 1
296 2
297 1
298 2
299 1
300 2
301 2
302 1
303 2
304 1
305 1
306 2
307 1
308 1
309 1
310 1
311 1
312 2
313 1
314 2
315 1
316 2
317 1
318 2
319 1
320 1
321 1
322 2
323 1
324 2
325 1
326 1
327 2
328 2
329 1
330 1
331 1
332 2
333 2
334 2
335 2
336 1
337 2
338 2
339 2
340 2
341 2
342 1
343 2
344 1
345 1
346 2
347 1
348 2
349 2
350 1
351 2
352 1
353 1
354 2
355 1
356 1
357 2
358 2
359 2
360 1
361 1
362 2
363 1
364 1
365 1
366 2
367 2
368 2
369 1
370 1
371 2
372 2
373 2
374 2
375 2
376 1
377 1
378 2
379 1
380 1
381 1
382 2
383 1
384 2
385 1
386 1
387 1
388 1
389 1
390 2
391 1
392 2
393 2
394 2
395 1
396 2
397 2
398 2
399 2
400 2
401 1
402 2
403 2
404 1
405 1
406 2
407 2
408 2
409 1
410 1
411 2
412 2
413 1
414 1
415 1
416 2
417 1
418 1
419 2
420 1
421 1
422 1
423 2
424 1
425 2
426 1
427 2
428 1
429 2
430 1
431 2
432 1
433 2
434 1
435 2
436 2
437 2
438 1
439 1
440 2
441 2
442 2
443 1
444 2
445 1
446 2
447 2
448 1
449 1
450 1
451 1
452 1
453 2
454 1
455 2
456 2
457 2
458 2
459 2
460 2
461 1
462 1
463 2
464 2
465 2
466 1
467 1
468 2
469 1
470 1
471 2
472 1
473 1
474 2
475 1
476 2
477 1
478 2
479 1
480 1
481 2
482 2
483 1
484 1
485 1
486 2
487 2
488 1
489 1
490 2
491 1
492 1
493 1
494 2
495 2
496 2
497 2
498 1
499 1
500 1
501 1
502 1
503 1
504 2
505 2
506 1
507 2
508 2
509 2
510 1
511 2
512 2
513 1
514 2
515 1
516 1
517 1
518 1
519 2
520 1
521 1
522 1
523 1
524 2
525 2
526 1
527 2
528 1
529 2
530 1
531 2
532 2
533 2
534 2
535 1
536 1
537 1
538 2
539 2
540 1
541 2
542 1
543 1
544 2
545 1
546 1
547 1
548 2
549 2
550 2
551 1
552 2
553 1
554 1
555 1
556 1
557 1
558 2
559 1
560 1
561 2
562 1
563 1
564 2
565 1
566 2
567 1
568 1
569 2
570 2
571 1
572 1
573 1
574 1
575 2
576 1
577 2
578 2
579 1
580 2
581 2
582 2
583 1
584 2
585 1
586 1
587 1
588 2
589 2
590 1
591 1
592 1
593 2
594 1
595 2
596 1
597 1
598 1
599 1
600 2
601 2
602 1
603 1
604 2
605 2
606 2
607 2
608 2
609 1
610 1
611 2
612 1
613 2
614 2
615 2
616 2
617 2
618 1
619 2
620 2
621 1
622 1
623 1
624 2
625 1
626 2
627 2
628 2
629 2
630 1
631 2
632 2
633 1
634 2
635 2
636 1
637 1
638 2
639 2
640 2
641 1
642 2
643 1
644 1
645 1
646 1
647 1
648 2
649 2
650 1
651 1
652 2
653 2
654 2
655 1
656 1
657 1
658 1
659 1
660 1
661 1
662 2
663 1
664 2
665 1
666 1
667 2
668 2
669 1
670 2
671 1
672 1
673 2
674 1
675 2
676 1
677 1
678 2
679 1
680 1
681 2
682 1
683 2
684 1
685 1
686 2
687 1
688 1
689 1
690 1
691 2
692 1
693 2
694 1
695 2
696 2
697 1
698 2
699 2
700 2
701 2
702 2
703 2
704 1
705 2
706 2
707 2
708 2
709 2
710 1
711 2
712 1
713 2
714 2
715 2
716 1
717 2
718 2
719 1
720 1
721 1
722 1
723 2
724 2
725 1
726 2
727 2
728 1
729 2
730 2
731 1
732 1
733 1
734 1
735 2
736 1
737 2
738 2
739 1
740 2
741 1
742 1
743 1
744 2
745 1
746 1
747 2
748 1
749 2
750 1
751 2
752 1
753 2
754 1
755 1
756 2
757 1
758 2
759 2
760 1
761 1
762 2
763 1
764 2
765 1
766 2
767 2
768 1
769 2
770 1
771 2
772 2
773 2
774 1
775 2
776 2
777 2
778 1
779 1
780 1
781 2
782 2
783 2
784 2
785 1
786 1
787 2
788 1
789 2
790 2
791 1
792 2
793 2
794 2
795 2
796 2
797 1
798 2
799 2
800 1
801 1
802 1
803 1
804 2
805 1
806 2
807 2
808 1
809 1
810 1
811 1
812 2
813 1
814 2
815 2
816 1
817 1
818 2
819 2
820 2
821 2
822 1
823 1
824 1
825 1
826 2
827 1
828 1
829 2
830 2
831 1
832 1
833 1
834 1
835 1
836 2
837 2
838 1
839 1
840 1
841 2
842 1
843 2
844 2
845 2
846 1
847 2
848 1
849 1
850 1
851 1
852 1
853 2
854 1
855 1
856 1
857 2
858 1
859 1
860 1
861 2
862 1
863 2
864 1
865 2
866 1
867 2
868 1
869 1
870 1
871 1
872 2
873 1
874 2
875 1
876 1
877 1
878 2
879 2
880 2
881 1
882 2
883 2
884 2
885 1
886 1
887 2
888 1
889 1
890 2
891 1
892 2
893 2
894 2
895 1
896 2
897 2
898 1
899 1
900 1
901 2
902 2
903 1
904 2
905 1
906 2
907 2
908 2
909 2
910 1
911 2
912 2
913 2
914 2
915 1
916 2
917 1
918 1
919 2
920 2
921 1
922 1
923 1
924 2
925 1
926 1
927 1
928 2
929 1
930 2
931 1
932 1
933 2
934 1
935 1
936 1
937 2
938 1
939 1
940 1
941 1
942 2
943 2
944 2
945 2
946 2
947 2
948 2
949 2
950 1
951 1
952 2
953 1
954 2
955 2
956 2
957 2
958 1
959 2
960 1
961 2
962 1
963 2
964 2
965 2
966 2
967 1
968 1
969 1
970 2
971 1
972 1
973 1
974 1
975 2
976 1
977 2
978 1
979 1
980 2
981 2
982 2
983 1
984 1
985 1
986 2
987 2
988 1
989 1
990 1
991 2
992 2
993 2
994 1
995 1
996 1
997 2
998 1
999 1
1000 1
